(set-logic QF_UF)
(declare-sort Z 0)
(declare-fun circuit () Bool)
(declare-fun input () Bool)
(declare-fun reg () Bool)
(declare-fun flash () Z)
(declare-fun nf () Z)
(declare-fun nf0 () Z)
(assert (not (= flash nf0)))
(assert (= flash nf))
(assert (= nf nf0))
(check-sat)
(exit)
